
Route #1: 27 37 57 17 43 56 32 49 21 46 20 
Route #2: 41 38 59 52 19 55 35 50 18 
Route #3: 33 34 40 23 47 30 53 2 
Route #4: 26 39 24 58 5 10 54 
Route #5: 16 48 22 42 15 
Route #6: 9 51 12 8 13 
Route #7: 25 45 36 28 3 
Route #8: 11 4 6 1 31 44 
Route #9: 14 7 29 
cost 1969.39
total time is 6.7